Route 1: 65 52 99 82 53 60 88 55 100 70 68
Route 2: 71 61 81 54 93 94 96 72 80
Route 3: 95 67 62 63 76 85 84 20 24
Route 4: 1 5 4 45 46 8 7 6 2
Route 5: 12 14 47 17 16 15 13 9 11 10
Route 6: 42 44 35 36 43 40 38 39 41 37
Route 7: 98 79 73 78 3
Route 8: 69 57 86 87 59 97 75 58 74
Route 9: 21 22 18 49 19 51 50 91
Route 10: 77 25 23 48 89 33
Route 11: 92 32 30 28 26 27 29 31 34
Route 12: 90 66 83 64 56
Vehicles: 12
Distance: 1465.35
